tsp_instances/TSP50/instance74.tsp
NODE_COORD_SECTION
0 156 85
1 109 144
2 159 60
3 27 149
4 138 40
5 13 1
6 107 198
7 10 120
8 172 20
9 40 45
10 83 175
11 104 187
12 6 146
13 173 52
14 12 63
15 196 9
16 61 170
17 28 108
18 77 167
19 199 65
20 144 137
21 65 6
22 21 68
23 34 146
24 10 136
25 112 67
26 84 90
27 37 69
28 47 27
29 19 147
30 199 161
31 20 143
32 93 22
33 170 32
34 134 3
35 139 49
36 74 158
37 117 172
38 38 147
39 150 21
40 84 135
41 145 96
42 84 68
43 75 122
44 17 154
45 23 144
46 85 192
47 161 177
48 118 51
49 117 117
