tsp_instances/TSP50/instance74.opt.tour
TOUR_SECTION
1
3
14
20
16
9
34
40
35
33
22
6
29
10
28
23
15
18
8
25
13
45
30
32
46
4
24
39
17
37
19
11
47
7
12
38
48
31
21
50
2
41
44
27
43
26
49
5
36
42
-1